NAME: ACTUAL_TOURS/amz2460
TYPE: TOUR
COMMENT: RouteID_0cc7fece-dee0-4225-a9c4-cf3a9167928e
DIMENSION: 163
TOUR_SECTION
133
141
126
116
6
109
147
82
15
19
2
108
161
160
55
32
120
16
52
43
34
123
53
163
72
30
38
64
23
100
24
91
18
92
159
66
3
68
119
40
73
157
138
89
4
129
93
80
127
60
152
125
122
20
97
113
90
117
96
153
67
28
49
29
102
56
65
74
86
47
124
46
115
50
17
8
79
95
70
81
162
62
103
59
139
36
135
134
39
58
114
105
140
13
155
45
69
84
35
87
27
150
101
106
94
21
57
12
149
136
156
145
33
154
144
137
61
128
104
110
76
151
88
37
158
130
22
42
131
48
5
121
111
99
107
1
11
63
10
118
132
9
51
143
78
54
44
83
148
142
41
25
98
146
112
14
77
85
31
7
71
26
75
-1
EOF
